c File: data_files/evolved_graphs/g3724.col
c
c Auto generated graph
c
p edge 100 1716
e 1 4
e 1 5
e 1 6
e 1 9
e 1 11
e 1 14
e 1 15
e 1 21
e 1 30
e 1 41
e 1 58
e 1 60
e 1 62
e 1 63
e 1 72
e 1 77
e 1 80
e 1 81
e 1 85
e 1 89
e 1 91
e 1 93
e 2 3
e 2 4
e 2 6
e 2 9
e 2 20
e 2 21
e 2 22
e 2 23
e 2 30
e 2 37
e 2 39
e 2 50
e 2 51
e 2 52
e 2 53
e 2 62
e 2 66
e 2 85
e 2 92
e 2 94
e 3 4
e 3 6
e 3 7
e 3 12
e 3 17
e 3 31
e 3 39
e 3 41
e 3 43
e 3 48
e 3 51
e 3 56
e 3 58
e 3 62
e 3 65
e 3 67
e 3 68
e 3 69
e 3 73
e 3 75
e 3 85
e 3 87
e 3 88
e 3 89
e 3 90
e 3 91
e 4 5
e 4 8
e 4 12
e 4 16
e 4 19
e 4 21
e 4 22
e 4 27
e 4 60
e 4 62
e 4 63
e 4 64
e 4 77
e 4 86
e 4 88
e 4 89
e 4 92
e 4 93
e 4 97
e 4 98
e 4 99
e 4 100
e 5 6
e 5 8
e 5 10
e 5 16
e 5 23
e 5 36
e 5 38
e 5 48
e 5 50
e 5 51
e 5 52
e 5 53
e 5 55
e 5 56
e 5 60
e 5 61
e 5 62
e 5 65
e 5 72
e 5 76
e 5 79
e 5 87
e 5 88
e 5 91
e 5 92
e 5 94
e 5 95
e 5 99
e 6 12
e 6 22
e 6 24
e 6 29
e 6 36
e 6 38
e 6 44
e 6 49
e 6 51
e 6 53
e 6 56
e 6 60
e 6 67
e 6 72
e 6 75
e 6 77
e 6 85
e 6 91
e 6 92
e 6 93
e 6 95
e 6 100
e 7 20
e 7 21
e 7 32
e 7 42
e 7 65
e 7 68
e 7 70
e 7 71
e 7 76
e 7 79
e 7 89
e 7 92
e 8 14
e 8 16
e 8 32
e 8 42
e 8 48
e 8 50
e 8 56
e 8 62
e 8 67
e 8 69
e 8 79
e 8 83
e 8 86
e 8 87
e 8 97
e 8 100
e 9 10
e 9 17
e 9 19
e 9 23
e 9 25
e 9 27
e 9 29
e 9 33
e 9 40
e 9 41
e 9 42
e 9 44
e 9 46
e 9 47
e 9 48
e 9 54
e 9 55
e 9 57
e 9 61
e 9 73
e 9 74
e 9 75
e 9 78
e 9 85
e 9 86
e 9 88
e 9 93
e 9 100
e 10 11
e 10 14
e 10 16
e 10 18
e 10 21
e 10 23
e 10 26
e 10 27
e 10 31
e 10 32
e 10 35
e 10 37
e 10 46
e 10 51
e 10 52
e 10 59
e 10 62
e 10 63
e 10 65
e 10 71
e 10 77
e 10 85
e 10 96
e 10 100
e 11 12
e 11 13
e 11 14
e 11 17
e 11 19
e 11 20
e 11 22
e 11 24
e 11 25
e 11 26
e 11 29
e 11 31
e 11 32
e 11 33
e 11 38
e 11 40
e 11 41
e 11 43
e 11 45
e 11 46
e 11 47
e 11 51
e 11 54
e 11 58
e 11 70
e 11 71
e 11 72
e 11 79
e 11 81
e 11 82
e 11 83
e 11 84
e 11 90
e 11 98
e 12 16
e 12 18
e 12 20
e 12 21
e 12 22
e 12 24
e 12 25
e 12 27
e 12 28
e 12 29
e 12 30
e 12 31
e 12 34
e 12 35
e 12 36
e 12 44
e 12 47
e 12 55
e 12 56
e 12 57
e 12 65
e 12 69
e 12 72
e 12 74
e 12 78
e 12 81
e 12 84
e 12 90
e 12 99
e 13 14
e 13 17
e 13 18
e 13 21
e 13 25
e 13 26
e 13 27
e 13 30
e 13 31
e 13 32
e 13 36
e 13 42
e 13 49
e 13 52
e 13 55
e 13 59
e 13 64
e 13 66
e 13 67
e 13 74
e 13 78
e 13 84
e 13 89
e 13 90
e 13 93
e 13 95
e 13 97
e 13 100
e 14 16
e 14 18
e 14 21
e 14 23
e 14 26
e 14 31
e 14 33
e 14 35
e 14 36
e 14 37
e 14 40
e 14 44
e 14 46
e 14 47
e 14 48
e 14 51
e 14 52
e 14 53
e 14 65
e 14 68
e 14 81
e 14 82
e 14 85
e 14 93
e 14 94
e 15 17
e 15 22
e 15 23
e 15 25
e 15 37
e 15 41
e 15 43
e 15 51
e 15 54
e 15 60
e 15 68
e 15 76
e 16 20
e 16 22
e 16 30
e 16 31
e 16 43
e 16 45
e 16 47
e 16 52
e 16 55
e 16 61
e 16 62
e 16 64
e 16 79
e 16 82
e 16 84
e 16 88
e 17 21
e 17 27
e 17 29
e 17 32
e 17 33
e 17 38
e 17 39
e 17 40
e 17 45
e 17 47
e 17 57
e 17 58
e 17 63
e 17 72
e 17 73
e 17 80
e 17 81
e 17 84
e 17 90
e 17 98
e 18 20
e 18 23
e 18 26
e 18 27
e 18 30
e 18 31
e 18 36
e 18 37
e 18 42
e 18 44
e 18 46
e 18 47
e 18 48
e 18 49
e 18 58
e 18 60
e 18 67
e 18 69
e 18 71
e 18 72
e 18 73
e 18 74
e 18 77
e 18 91
e 18 93
e 18 94
e 18 96
e 18 100
e 19 21
e 19 22
e 19 23
e 19 24
e 19 32
e 19 34
e 19 38
e 19 41
e 19 42
e 19 47
e 19 52
e 19 53
e 19 59
e 19 60
e 19 61
e 19 63
e 19 69
e 19 71
e 19 72
e 19 73
e 19 90
e 19 93
e 19 94
e 19 97
e 20 23
e 20 28
e 20 31
e 20 32
e 20 33
e 20 36
e 20 38
e 20 41
e 20 45
e 20 46
e 20 51
e 20 59
e 20 62
e 20 64
e 20 66
e 20 76
e 20 79
e 20 89
e 20 93
e 20 94
e 21 22
e 21 23
e 21 25
e 21 32
e 21 33
e 21 34
e 21 35
e 21 38
e 21 44
e 21 45
e 21 46
e 21 47
e 21 49
e 21 53
e 21 61
e 21 70
e 21 72
e 21 75
e 21 78
e 21 80
e 21 83
e 21 85
e 21 86
e 21 87
e 21 89
e 21 91
e 21 92
e 21 93
e 22 23
e 22 24
e 22 25
e 22 27
e 22 32
e 22 34
e 22 35
e 22 36
e 22 37
e 22 38
e 22 39
e 22 40
e 22 41
e 22 43
e 22 45
e 22 46
e 22 50
e 22 55
e 22 59
e 22 63
e 22 67
e 22 75
e 22 80
e 22 85
e 22 86
e 22 88
e 22 90
e 22 91
e 22 94
e 22 97
e 22 98
e 22 100
e 23 24
e 23 25
e 23 31
e 23 32
e 23 34
e 23 36
e 23 39
e 23 43
e 23 50
e 23 53
e 23 62
e 23 64
e 23 68
e 23 73
e 23 78
e 23 84
e 23 86
e 23 87
e 23 94
e 24 27
e 24 30
e 24 32
e 24 36
e 24 38
e 24 41
e 24 47
e 24 49
e 24 52
e 24 53
e 24 56
e 24 57
e 24 59
e 24 60
e 24 62
e 24 69
e 24 71
e 24 73
e 24 74
e 24 77
e 24 78
e 24 82
e 24 83
e 24 88
e 24 89
e 24 91
e 24 92
e 24 94
e 24 95
e 24 97
e 24 98
e 24 99
e 25 28
e 25 29
e 25 34
e 25 36
e 25 37
e 25 38
e 25 40
e 25 41
e 25 44
e 25 45
e 25 47
e 25 49
e 25 52
e 25 53
e 25 54
e 25 55
e 25 58
e 25 61
e 25 64
e 25 67
e 25 68
e 25 69
e 25 70
e 25 71
e 25 83
e 25 84
e 25 87
e 25 88
e 25 89
e 25 90
e 25 92
e 25 94
e 25 97
e 25 100
e 26 27
e 26 28
e 26 29
e 26 32
e 26 33
e 26 37
e 26 39
e 26 41
e 26 44
e 26 47
e 26 49
e 26 50
e 26 60
e 26 62
e 26 64
e 26 67
e 26 68
e 26 70
e 26 71
e 26 72
e 26 75
e 26 77
e 26 79
e 26 80
e 26 82
e 26 85
e 26 87
e 26 91
e 26 94
e 26 95
e 26 96
e 26 97
e 26 100
e 27 28
e 27 29
e 27 31
e 27 34
e 27 37
e 27 38
e 27 39
e 27 43
e 27 46
e 27 47
e 27 54
e 27 59
e 27 60
e 27 61
e 27 62
e 27 65
e 27 66
e 27 71
e 27 72
e 27 73
e 27 74
e 27 75
e 27 80
e 27 82
e 27 85
e 27 87
e 27 89
e 27 90
e 27 91
e 27 93
e 27 94
e 27 96
e 27 97
e 27 100
e 28 34
e 28 37
e 28 40
e 28 43
e 28 47
e 28 49
e 28 50
e 28 53
e 28 60
e 28 62
e 28 63
e 28 64
e 28 70
e 28 74
e 28 76
e 28 81
e 28 83
e 28 85
e 28 92
e 28 93
e 28 94
e 28 99
e 29 30
e 29 35
e 29 36
e 29 38
e 29 40
e 29 45
e 29 48
e 29 52
e 29 53
e 29 54
e 29 57
e 29 58
e 29 60
e 29 62
e 29 64
e 29 65
e 29 66
e 29 69
e 29 71
e 29 74
e 29 78
e 29 80
e 29 82
e 29 83
e 29 85
e 29 89
e 29 90
e 29 91
e 29 92
e 29 100
e 30 33
e 30 34
e 30 36
e 30 37
e 30 38
e 30 40
e 30 41
e 30 45
e 30 48
e 30 49
e 30 51
e 30 52
e 30 54
e 30 57
e 30 62
e 30 65
e 30 66
e 30 67
e 30 68
e 30 69
e 30 70
e 30 74
e 30 75
e 30 79
e 30 81
e 30 82
e 30 83
e 30 86
e 30 90
e 30 93
e 30 94
e 30 95
e 30 98
e 30 99
e 31 32
e 31 35
e 31 42
e 31 46
e 31 47
e 31 48
e 31 52
e 31 53
e 31 55
e 31 58
e 31 60
e 31 62
e 31 68
e 31 69
e 31 74
e 31 75
e 31 78
e 31 79
e 31 80
e 31 81
e 31 85
e 31 86
e 31 88
e 31 90
e 31 93
e 31 95
e 31 97
e 31 99
e 31 100
e 32 33
e 32 34
e 32 35
e 32 38
e 32 42
e 32 44
e 32 45
e 32 48
e 32 50
e 32 51
e 32 52
e 32 57
e 32 64
e 32 65
e 32 70
e 32 72
e 32 73
e 32 76
e 32 77
e 32 81
e 32 82
e 32 83
e 32 84
e 32 87
e 32 89
e 32 90
e 32 92
e 32 96
e 32 97
e 32 98
e 33 34
e 33 35
e 33 36
e 33 37
e 33 40
e 33 42
e 33 48
e 33 50
e 33 55
e 33 59
e 33 62
e 33 64
e 33 65
e 33 66
e 33 67
e 33 70
e 33 72
e 33 74
e 33 75
e 33 76
e 33 80
e 33 82
e 33 86
e 33 92
e 33 93
e 33 97
e 33 98
e 33 100
e 34 36
e 34 40
e 34 41
e 34 43
e 34 44
e 34 47
e 34 48
e 34 52
e 34 53
e 34 54
e 34 59
e 34 60
e 34 61
e 34 62
e 34 65
e 34 66
e 34 67
e 34 76
e 34 79
e 34 83
e 34 89
e 34 90
e 34 97
e 34 98
e 35 43
e 35 44
e 35 45
e 35 51
e 35 54
e 35 56
e 35 57
e 35 62
e 35 64
e 35 67
e 35 71
e 35 73
e 35 74
e 35 75
e 35 77
e 35 82
e 35 85
e 35 89
e 35 90
e 35 94
e 35 95
e 35 96
e 36 39
e 36 40
e 36 43
e 36 44
e 36 49
e 36 50
e 36 51
e 36 55
e 36 62
e 36 64
e 36 66
e 36 68
e 36 73
e 36 74
e 36 78
e 36 79
e 36 80
e 36 83
e 36 85
e 36 91
e 36 92
e 36 94
e 36 98
e 36 100
e 37 40
e 37 53
e 37 54
e 37 64
e 37 67
e 37 71
e 37 72
e 37 78
e 37 79
e 37 80
e 37 82
e 37 83
e 37 85
e 37 88
e 37 90
e 37 91
e 37 94
e 37 95
e 37 96
e 37 99
e 38 39
e 38 41
e 38 42
e 38 44
e 38 47
e 38 48
e 38 53
e 38 58
e 38 59
e 38 61
e 38 62
e 38 63
e 38 67
e 38 71
e 38 78
e 38 79
e 38 80
e 38 81
e 38 85
e 38 88
e 38 90
e 38 91
e 38 94
e 39 40
e 39 41
e 39 46
e 39 49
e 39 50
e 39 51
e 39 52
e 39 54
e 39 55
e 39 57
e 39 58
e 39 60
e 39 62
e 39 64
e 39 67
e 39 70
e 39 72
e 39 74
e 39 76
e 39 78
e 39 80
e 39 81
e 39 83
e 39 88
e 39 89
e 39 91
e 39 96
e 39 100
e 40 47
e 40 50
e 40 53
e 40 57
e 40 59
e 40 61
e 40 63
e 40 64
e 40 70
e 40 76
e 40 77
e 40 78
e 40 80
e 40 82
e 40 84
e 40 88
e 40 89
e 40 90
e 40 92
e 40 96
e 40 98
e 41 42
e 41 43
e 41 46
e 41 50
e 41 52
e 41 54
e 41 57
e 41 62
e 41 67
e 41 68
e 41 69
e 41 72
e 41 73
e 41 77
e 41 79
e 41 80
e 41 85
e 41 86
e 41 88
e 41 92
e 41 97
e 41 98
e 42 43
e 42 44
e 42 47
e 42 48
e 42 51
e 42 52
e 42 55
e 42 56
e 42 57
e 42 58
e 42 62
e 42 64
e 42 68
e 42 73
e 42 75
e 42 76
e 42 78
e 42 79
e 42 89
e 42 90
e 42 93
e 43 45
e 43 46
e 43 47
e 43 51
e 43 54
e 43 56
e 43 59
e 43 60
e 43 61
e 43 64
e 43 70
e 43 73
e 43 76
e 43 77
e 43 78
e 43 80
e 43 82
e 43 85
e 43 86
e 43 87
e 43 90
e 43 93
e 43 94
e 43 95
e 44 46
e 44 47
e 44 53
e 44 55
e 44 58
e 44 64
e 44 66
e 44 69
e 44 70
e 44 72
e 44 78
e 44 80
e 44 81
e 44 83
e 44 86
e 44 87
e 44 91
e 44 94
e 44 95
e 44 96
e 44 99
e 44 100
e 45 54
e 45 55
e 45 57
e 45 60
e 45 62
e 45 63
e 45 65
e 45 68
e 45 69
e 45 71
e 45 73
e 45 74
e 45 76
e 45 77
e 45 81
e 45 83
e 45 84
e 45 85
e 45 86
e 45 88
e 45 89
e 45 95
e 45 96
e 45 97
e 46 47
e 46 54
e 46 60
e 46 61
e 46 63
e 46 65
e 46 66
e 46 68
e 46 69
e 46 71
e 46 74
e 46 75
e 46 79
e 46 83
e 46 84
e 46 93
e 46 94
e 46 98
e 46 99
e 47 50
e 47 52
e 47 53
e 47 55
e 47 56
e 47 61
e 47 62
e 47 63
e 47 64
e 47 65
e 47 70
e 47 72
e 47 74
e 47 79
e 47 84
e 47 85
e 47 86
e 47 88
e 47 90
e 47 91
e 47 94
e 47 95
e 47 100
e 48 49
e 48 52
e 48 54
e 48 56
e 48 57
e 48 62
e 48 67
e 48 76
e 48 82
e 48 84
e 48 85
e 48 89
e 48 92
e 48 95
e 48 99
e 49 50
e 49 52
e 49 56
e 49 57
e 49 58
e 49 60
e 49 64
e 49 66
e 49 70
e 49 73
e 49 74
e 49 75
e 49 77
e 49 78
e 49 81
e 49 85
e 49 86
e 49 87
e 49 89
e 49 91
e 49 94
e 49 95
e 49 96
e 50 53
e 50 56
e 50 58
e 50 59
e 50 62
e 50 64
e 50 67
e 50 69
e 50 70
e 50 72
e 50 73
e 50 80
e 50 81
e 50 82
e 50 84
e 50 85
e 50 87
e 50 90
e 50 91
e 50 94
e 50 96
e 51 55
e 51 56
e 51 58
e 51 61
e 51 62
e 51 64
e 51 65
e 51 68
e 51 71
e 51 73
e 51 77
e 51 80
e 51 82
e 51 86
e 51 88
e 51 89
e 51 91
e 51 96
e 51 97
e 52 54
e 52 55
e 52 56
e 52 57
e 52 60
e 52 63
e 52 65
e 52 68
e 52 69
e 52 70
e 52 71
e 52 74
e 52 77
e 52 78
e 52 80
e 52 81
e 52 85
e 52 87
e 52 88
e 52 89
e 52 91
e 52 94
e 52 98
e 52 100
e 53 56
e 53 59
e 53 61
e 53 62
e 53 64
e 53 67
e 53 68
e 53 70
e 53 71
e 53 74
e 53 75
e 53 76
e 53 78
e 53 81
e 53 84
e 53 85
e 53 86
e 53 87
e 53 90
e 53 91
e 53 92
e 53 94
e 53 95
e 53 96
e 53 99
e 54 57
e 54 61
e 54 64
e 54 65
e 54 69
e 54 70
e 54 71
e 54 78
e 54 83
e 54 85
e 54 87
e 54 88
e 54 89
e 54 92
e 54 95
e 54 98
e 55 58
e 55 61
e 55 64
e 55 67
e 55 68
e 55 73
e 55 75
e 55 77
e 55 78
e 55 81
e 55 82
e 55 83
e 55 85
e 55 86
e 55 88
e 55 89
e 55 94
e 55 95
e 55 97
e 55 99
e 56 58
e 56 62
e 56 65
e 56 66
e 56 70
e 56 71
e 56 77
e 56 79
e 56 84
e 56 86
e 56 87
e 56 88
e 56 93
e 56 94
e 56 97
e 56 98
e 56 99
e 57 58
e 57 59
e 57 61
e 57 63
e 57 66
e 57 67
e 57 68
e 57 70
e 57 71
e 57 72
e 57 74
e 57 86
e 57 90
e 57 93
e 57 94
e 57 99
e 57 100
e 58 66
e 58 67
e 58 70
e 58 75
e 58 76
e 58 79
e 58 80
e 58 81
e 58 83
e 58 84
e 58 87
e 58 88
e 58 92
e 58 94
e 58 95
e 58 96
e 58 97
e 58 99
e 58 100
e 59 61
e 59 65
e 59 70
e 59 77
e 59 79
e 59 82
e 59 85
e 59 87
e 59 90
e 59 91
e 59 94
e 59 95
e 59 97
e 59 98
e 60 66
e 60 69
e 60 73
e 60 74
e 60 75
e 60 76
e 60 77
e 60 81
e 60 82
e 60 83
e 60 87
e 60 88
e 60 89
e 60 90
e 60 94
e 60 97
e 60 100
e 61 67
e 61 68
e 61 69
e 61 73
e 61 74
e 61 87
e 61 88
e 61 89
e 61 95
e 62 64
e 62 65
e 62 68
e 62 69
e 62 70
e 62 71
e 62 74
e 62 76
e 62 78
e 62 79
e 62 80
e 62 81
e 62 85
e 62 87
e 62 88
e 62 90
e 62 92
e 62 93
e 62 97
e 62 98
e 62 99
e 62 100
e 63 64
e 63 65
e 63 67
e 63 68
e 63 69
e 63 70
e 63 74
e 63 75
e 63 76
e 63 77
e 63 82
e 63 83
e 63 85
e 63 86
e 63 87
e 63 89
e 63 92
e 63 97
e 64 65
e 64 66
e 64 67
e 64 69
e 64 71
e 64 79
e 64 83
e 64 85
e 64 86
e 64 89
e 64 90
e 64 92
e 64 93
e 64 95
e 64 98
e 64 99
e 65 70
e 65 77
e 65 78
e 65 81
e 65 82
e 65 85
e 65 87
e 65 88
e 65 92
e 65 94
e 65 97
e 66 67
e 66 68
e 66 70
e 66 71
e 66 72
e 66 73
e 66 77
e 66 78
e 66 84
e 66 87
e 66 92
e 66 93
e 66 96
e 66 98
e 67 68
e 67 70
e 67 71
e 67 72
e 67 74
e 67 75
e 67 76
e 67 83
e 67 85
e 67 86
e 67 91
e 67 92
e 67 93
e 67 94
e 68 69
e 68 76
e 68 80
e 68 86
e 68 87
e 68 88
e 68 90
e 68 94
e 68 96
e 68 97
e 68 99
e 69 70
e 69 72
e 69 74
e 69 82
e 69 84
e 69 87
e 69 89
e 69 92
e 69 94
e 69 95
e 69 98
e 70 73
e 70 80
e 70 81
e 70 82
e 70 85
e 70 86
e 70 88
e 70 92
e 70 93
e 70 95
e 70 97
e 70 98
e 70 100
e 71 76
e 71 81
e 71 85
e 71 89
e 71 90
e 71 97
e 71 99
e 72 73
e 72 74
e 72 75
e 72 77
e 72 81
e 72 82
e 72 84
e 72 85
e 72 87
e 72 89
e 72 91
e 72 94
e 72 96
e 72 97
e 72 98
e 72 100
e 73 74
e 73 77
e 73 80
e 73 81
e 73 82
e 73 87
e 73 88
e 73 90
e 73 91
e 73 92
e 73 95
e 73 96
e 73 100
e 74 78
e 74 79
e 74 81
e 74 84
e 74 87
e 74 88
e 74 89
e 74 90
e 74 98
e 74 100
e 75 77
e 75 79
e 75 84
e 75 87
e 75 89
e 75 90
e 75 95
e 75 96
e 75 100
e 76 81
e 76 84
e 76 89
e 76 90
e 76 93
e 76 96
e 76 97
e 77 80
e 77 81
e 77 88
e 77 89
e 77 92
e 77 93
e 77 97
e 77 100
e 78 79
e 78 81
e 78 83
e 78 84
e 78 86
e 78 87
e 78 90
e 78 92
e 78 93
e 78 94
e 78 97
e 78 98
e 78 100
e 79 82
e 79 84
e 79 91
e 79 92
e 79 94
e 79 95
e 79 99
e 80 82
e 80 83
e 80 84
e 80 86
e 80 87
e 80 93
e 80 98
e 80 99
e 81 84
e 81 86
e 81 88
e 81 89
e 81 92
e 81 93
e 81 94
e 81 97
e 82 86
e 82 89
e 82 95
e 82 98
e 82 99
e 83 86
e 83 87
e 83 88
e 83 89
e 83 92
e 83 97
e 84 86
e 84 89
e 84 90
e 84 95
e 84 97
e 84 99
e 85 89
e 85 92
e 85 96
e 86 87
e 86 88
e 86 89
e 86 93
e 86 96
e 86 97
e 86 100
e 87 89
e 87 90
e 87 93
e 87 94
e 87 96
e 87 97
e 87 100
e 88 91
e 88 92
e 88 97
e 88 100
e 89 92
e 89 93
e 89 94
e 89 96
e 89 97
e 89 99
e 90 92
e 90 99
e 90 100
e 91 99
e 91 100
e 92 94
e 92 97
e 92 98
e 93 95
e 93 97
e 93 98
e 93 100
e 94 95
e 94 97
e 94 98
e 95 98
e 95 99
e 95 100
e 96 98
e 96 99
e 97 100
e 98 100
